(set-info :smt-lib-version 2.6)
(set-logic QF_S)
(set-info :source |
Generated by: Hongjian Jiang, Oliver Markgraf, Daniel Stan, Anthony W. Lin, Philipp Ruemmer
Generated on: 2025-04-11
Application: Using String Solvers to solve RMC problems encoded as CHC over Strings
Target solver: cvc5, OSTRICH, Z3, Z3alpha, Z3-noodler
Time limit: 60.0
Benchmarks are extracted by running HornStr https://arg-git.informatik.uni-kl.de/pub/string-chc-lib on all benchmarks
provided in the repository and gathering the string queries sent to the string solvers.
|)
(set-info :license "https://creativecommons.org/licenses/by/4.0/")
(set-info :category "industrial")
(declare-fun Y () String)
(assert (let ((a!1 (re.* (re.union (re.union (str.to_re "A") (str.to_re "W"))
                           (str.to_re "C")))))
  (str.in_re Y a!1)))
(declare-fun X () String)
(declare-fun reg0 () String)
(assert (and true (= X reg0) (= Y reg0) (str.in_re reg0 (re.* (str.to_re "A")))))
(push 1)
(assert (= X "AAA"))
(set-info :status unknown)
(check-sat)
(assert (distinct Y "AAA"))
(set-info :status unknown)
(check-sat)
(pop 1)
(push 1)
(assert (= X "AA"))
(set-info :status unknown)
(check-sat)
(assert (distinct Y "AA"))
(set-info :status unknown)
(check-sat)
(pop 1)
(push 1)
(assert (= X "AAAA"))
(set-info :status unknown)
(check-sat)
(assert (distinct Y "AAAA"))
(set-info :status unknown)
(check-sat)
(pop 1)
(check-sat)
(exit)
